(set-logic QF_LRA)
(declare-const p10 Real)
(declare-const p11 Real)
(declare-const row_sum Real)
(assert (= p10 (/ 1 3)))
(assert (= p11 (/ 1 3)))
(assert (= row_sum (+ p10 p11)))
(assert (= row_sum 1))
(check-sat)
